
Log started (V12.10.0.0) Tue Apr 20 03:47:56 2021

Warning, line 3915: Name 's97' does not exist.
Warning, line 3916: Name 's109' does not exist.
Warning, line 3921: Name 's254' does not exist.
Warning, line 3923: Name 's289' does not exist.

Problem 'asset.lp' read.
Read time = 0.01 sec. (0.34 ticks)
New value for default parallel thread count: 1
New value for time limit in seconds: 150
Version identifier: 12.10.0.0 | 2019-11-26 | 843d4de
CPXPARAM_Threads                                 1
CPXPARAM_TimeLimit                               150
Found incumbent of value 0.000000 after 0.00 sec. (0.09 ticks)
Tried aggregator 3 times.
MIP Presolve eliminated 1438 rows and 83 columns.
MIP Presolve modified 2163 coefficients.
Aggregator did 961 substitutions.
Reduced MIP has 1143 rows, 1341 columns, and 5932 nonzeros.
Reduced MIP has 1178 binaries, 120 generals, 0 SOSs, and 0 indicators.
Presolve time = 0.01 sec. (11.56 ticks)
Probing fixed 271 vars, tightened 31 bounds.
Probing time = 0.01 sec. (5.59 ticks)
Cover probing fixed 0 vars, tightened 22 bounds.
Tried aggregator 1 time.
MIP Presolve eliminated 355 rows and 338 columns.
MIP Presolve modified 110 coefficients.
Reduced MIP has 788 rows, 1003 columns, and 3892 nonzeros.
Reduced MIP has 872 binaries, 89 generals, 0 SOSs, and 0 indicators.
Presolve time = 0.00 sec. (3.68 ticks)
Probing time = 0.00 sec. (2.50 ticks)
Cover probing fixed 0 vars, tightened 1 bounds.
Tried aggregator 1 time.
Detecting symmetries...
MIP Presolve eliminated 1 rows and 1 columns.
MIP Presolve modified 118 coefficients.
Reduced MIP has 787 rows, 1002 columns, and 3889 nonzeros.
Reduced MIP has 871 binaries, 89 generals, 0 SOSs, and 0 indicators.
Presolve time = 0.00 sec. (2.58 ticks)
Probing time = 0.00 sec. (2.51 ticks)
Clique table members: 2609.
MIP emphasis: balance optimality and feasibility.
MIP search method: dynamic search.
Parallel mode: none, using 1 thread.
Root relaxation solution time = 0.01 sec. (11.27 ticks)

        Nodes                                         Cuts/
   Node  Left     Objective  IInf  Best Integer    Best Bound    ItCnt     Gap

*     0+    0                            0.0000      645.0000              --- 
      0     0      498.1327   185        0.0000      498.1327      523     --- 
      0     0      480.2734   185        0.0000     Cuts: 296     1136     --- 
      0     0      474.3707   185        0.0000     Cuts: 296     1569     --- 
      0     0      471.9245   185        0.0000     Cuts: 279     1956     --- 
      0     0      471.2893   185        0.0000     Cuts: 226     2102     --- 
      0     0      470.9163   185        0.0000     Cuts: 148     2229     --- 
*     0+    0                           15.0000      470.9163              --- 
*     0+    0                           20.0000      470.9163              --- 
      0     0        cutoff             20.0000      470.9163     2229     --- 
Detecting symmetries...
      0     0      470.2877   185       20.0000      Cuts: 95     2342     --- 
      0     0      470.0547   185       20.0000      Cuts: 90     2487     --- 
      0     0      469.7844   185       20.0000     Cuts: 140     2632     --- 
      0     0      469.2617   185       20.0000      Cuts: 90     2721     --- 
      0     0      468.3044   185       20.0000     Cuts: 122     2882     --- 
      0     0      467.9590   185       20.0000     Cuts: 149     3061     --- 
      0     0      467.8490   185       20.0000     Cuts: 157     3171     --- 
      0     0      467.3695   185       20.0000     Cuts: 111     3419     --- 
      0     0      466.5451   185       20.0000     Cuts: 207     3648     --- 
      0     0      466.2157   185       20.0000     Cuts: 125     3828     --- 
*     0+    0                           30.0000      466.2157              --- 
*     0+    0                           85.0000      466.2157           448.49%
*     0+    0                           90.0000      466.2157           418.02%
      0     0        cutoff             90.0000      466.2157     3828  418.02%
      0     0      465.7110   185       90.0000     Cuts: 153     3970  417.46%
      0     0      464.6112   185       90.0000     Cuts: 137     4162  416.23%
      0     0      462.8236   185       90.0000     Cuts: 222     4470  414.25%
      0     0      462.3667   185       90.0000     Cuts: 193     4642  413.74%
      0     0      462.1661   185       90.0000     Cuts: 136     4812  413.52%
      0     0      462.0338   185       90.0000     Cuts: 162     4985  413.37%
      0     0      461.8174   185       90.0000     Cuts: 142     5193  413.13%
      0     0      461.5393   185       90.0000     Cuts: 238     5480  412.82%
*     0+    0                          195.0000      461.5393           136.69%
      0     0      461.1702   185      195.0000     Cuts: 181     5708  136.50%
      0     0      460.9640   185      195.0000     Cuts: 166     5993  136.39%
      0     0      460.8755   185      195.0000     Cuts: 205     6174  136.35%
      0     0      460.4938   185      195.0000     Cuts: 131     6430  136.15%
      0     0      459.7529   185      195.0000     Cuts: 190     6727  135.77%
      0     0      459.5478   185      195.0000     Cuts: 161     6840  135.67%
      0     0      459.4686   185      195.0000     Cuts: 180     7080  135.62%
*     0+    0                          210.0000      459.4686           118.79%
*     0+    0                          230.0000      459.4686            99.77%
      0     0        cutoff            230.0000      459.4686     7080   99.77%
*     0+    0                          270.0000      459.4686            70.17%
*     0+    0                          275.0000      459.4686            67.08%
      0     0        cutoff            275.0000      459.4686     7080   67.08%
Detecting symmetries...
      0     2      459.4686   212      275.0000      459.4538     7080   67.07%
Elapsed time = 0.81 sec. (856.78 ticks, tree = 0.01 MB, solutions = 10)
     46    48      447.9154   183      275.0000      459.3307    12245   67.03%
    165   155      315.0000    18      275.0000      459.3307    16578   67.03%
*   170+  155                          300.0000      459.3307            53.11%
    207   190      450.4988   173      300.0000      459.3097    19894   53.10%
    259   234      406.4045    98      300.0000      459.3097    23605   53.10%
*   300   243      integral     0      320.0000      459.3097    24442   43.53%
    340   282      428.2838   156      320.0000      458.3057    26567   43.22%
*   400+  336                          325.0000      458.3057            41.02%
    439   377      402.2995   123      325.0000      458.2953    30124   41.01%

Performing restart 1

Repeating presolve.
Tried aggregator 2 times.
MIP Presolve modified 812 coefficients.
Aggregator did 1 substitutions.
Reduced MIP has 786 rows, 1001 columns, and 3308 nonzeros.
Reduced MIP has 870 binaries, 89 generals, 0 SOSs, and 0 indicators.
Presolve time = 0.00 sec. (4.19 ticks)
Tried aggregator 1 time.
Reduced MIP has 786 rows, 1001 columns, and 3308 nonzeros.
Reduced MIP has 870 binaries, 89 generals, 0 SOSs, and 0 indicators.
Presolve time = 0.00 sec. (2.53 ticks)
Represolve time = 0.03 sec. (21.31 ticks)
    510     0      436.6190   241      325.0000     Cuts: 273    33259   34.34%
    510     0      428.7325   241      325.0000     Cuts: 224    33655   31.92%
    510     0      426.2817   241      325.0000     Cuts: 196    33956   31.16%
    510     0      423.1358   241      325.0000     Cuts: 164    34237   30.20%
    510     0      421.9740   241      325.0000     Cuts: 159    34430   29.84%
    510     0      420.4135   241      325.0000     Cuts: 156    34601   29.36%
    510     0      418.7073   241      325.0000     Cuts: 163    34813   28.83%
    510     0      417.8556   241      325.0000     Cuts: 137    35026   28.57%
    510     0      417.4174   241      325.0000     Cuts: 152    35228   28.44%
*   510+    0                          345.0000      417.4174            20.99%
    510     0        cutoff            345.0000      417.4174    35228   20.99%
    510     0      416.9477   241      345.0000      Cuts: 94    35361   20.85%
    510     0      416.6362   241      345.0000     Cuts: 111    35472   20.76%
    510     0      415.4906   241      345.0000     Cuts: 102    35641   20.43%
    510     0      414.9748   241      345.0000     Cuts: 112    35798   20.28%
    510     0      414.6588   241      345.0000      Cuts: 90    35922   20.19%
    510     0      414.1584   241      345.0000      Cuts: 97    36028   20.05%
    510     0      414.1082   241      345.0000      Cuts: 73    36097   20.03%
    510     0      414.0165   241      345.0000      Cuts: 57    36154   20.00%
    510     0      413.4618   241      345.0000      Cuts: 59    36254   19.84%
    510     0      413.2221   241      345.0000      Cuts: 77    36329   19.77%
    510     0      413.1982   241      345.0000      Cuts: 55    36359   19.77%
    510     0      413.0755   241      345.0000      Cuts: 49    36395   19.73%
    510     0      412.9307   241      345.0000      Cuts: 73    36469   19.69%
    510     0      412.6956   241      345.0000      Cuts: 75    36593   19.62%
    510     0      412.6190   241      345.0000      Cuts: 79    36672   19.60%
    510     0      412.5572   241      345.0000      Cuts: 75    36739   19.58%
    510     0      412.5307   241      345.0000      Cuts: 71    36807   19.57%
    510     0      412.3638   241      345.0000      Cuts: 78    36973   19.53%
    510     0      412.2394   241      345.0000      Cuts: 98    37137   19.49%
    510     0      412.1513   241      345.0000     Cuts: 105    37258   19.46%
    510     0      412.0842   241      345.0000      Cuts: 72    37350   19.44%
    510     2      412.0842   234      345.0000      412.0616    37350   19.44%
    513     5      404.5724   209      345.0000      411.3076    38134   19.22%
    516     8      405.5627   186      345.0000      410.0392    38673   18.85%
    592    78      404.9226   232      345.0000      410.0088    43951   18.84%
Elapsed time = 6.16 sec. (7190.04 ticks, tree = 0.48 MB, solutions = 14)
    751   226      391.8574   145      345.0000      407.7019    51959   18.17%
   1103   543      360.1269    87      345.0000      403.9721    61519   17.09%
   1401   797      397.4246   217      345.0000      402.9575    72975   16.80%
   1652  1023      391.0853   157      345.0000      401.8605    83302   16.48%
   1880  1226      400.4081   219      345.0000      401.4781    93392   16.37%
   2099  1424      376.9536   157      345.0000      400.7797   102552   16.17%
   2405  1701      372.2486   157      345.0000      400.2945   113433   16.03%
   2599  1855      391.2074   183      345.0000      400.1437   123440   15.98%
   2847  2071      393.6993   172      345.0000      399.6577   135049   15.84%
   3185  2367      382.5840   112      345.0000      399.1236   147379   15.69%
Elapsed time = 13.59 sec. (16835.13 ticks, tree = 16.44 MB, solutions = 14)
   3469  2627      388.9304    97      345.0000      398.8636   159083   15.61%
*  3510+ 2022                          360.0000      398.8636            10.80%
*  3523  1673      integral     0      365.0000      398.8636   160639    9.28%
   3687  1803      370.0000     4      365.0000      398.2799   168867    9.12%
   3823  1901      383.5032   171      365.0000      397.8750   178054    9.01%
   4064  2093      389.0843   179      365.0000      397.5473   188538    8.92%
   4285  2280      393.0000   182      365.0000      397.2173   198958    8.83%
   4506  2469      379.8960   134      365.0000      396.9578   209145    8.76%
   4720  2635      387.7518   192      365.0000      396.7500   219529    8.70%
*  4832   871      integral     0      380.0000      396.6304   223065    4.38%
   4918   905      385.0000   118      380.0000      396.0562   229378    4.23%
   5043   922      386.8519   162      380.0000      395.0965   238331    3.97%
   5114   897      386.9256   167      380.0000      394.6607   246479    3.86%
Elapsed time = 21.18 sec. (26473.05 ticks, tree = 5.92 MB, solutions = 17)
   5195   885      385.3879   195      380.0000      394.2223   254131    3.74%
   5266   860        cutoff            380.0000      393.9338   261856    3.67%
   5341   834      387.2785   180      380.0000      393.2542   269800    3.49%
   5415   815      388.6845   197      380.0000      392.9354   277717    3.40%
   5503   773        cutoff            380.0000      392.4364   285035    3.27%
   5609   723        cutoff            380.0000      391.8349   293562    3.11%
   5715   657      390.4428   166      380.0000      391.2192   301791    2.95%
   5844   586      385.1688   150      380.0000      390.4718   311190    2.76%
   5983   503        cutoff            380.0000      389.6275   320723    2.53%
   6152   396        cutoff            380.0000      388.5060   329736    2.24%
Elapsed time = 28.95 sec. (36107.45 ticks, tree = 2.57 MB, solutions = 17)
   6428   161        cutoff            380.0000      386.4802   338811    1.71%

GUB cover cuts applied:  44
Clique cuts applied:  115
Cover cuts applied:  19
Implied bound cuts applied:  111
Flow cuts applied:  23
Mixed integer rounding cuts applied:  147
Zero-half cuts applied:  91
Lift and project cuts applied:  20

Root node processing (before b&c):
  Real time             =    0.80 sec. (854.42 ticks)
Sequential b&c:
  Real time             =   29.14 sec. (36459.36 ticks)
                          ------------
Total (root+branch&cut) =   29.94 sec. (37313.77 ticks)

Solution pool: 18 solutions saved.

MIP - Integer optimal solution:  Objective =  3.8000000000e+02
Solution time =   29.94 sec.  Iterations = 340639  Nodes = 6597
Deterministic time = 37313.78 ticks  (1246.30 ticks/sec)


Incumbent solution
Variable Name           Solution Value
F                           380.000000
y186                          1.000000
y129                          1.000000
y164                          1.000000
y230                          1.000000
y12                           1.000000
y33                           1.000000
y75                           1.000000
y7                            1.000000
y162                          1.000000
y141                          1.000000
y175                          1.000000
y62                           1.000000
y282                          1.000000
y19                           1.000000
y25                           1.000000
y205                          1.000000
y229                          1.000000
y64                           1.000000
y133                          1.000000
y269                          1.000000
y209                          1.000000
y287                          1.000000
y1                            1.000000
x87x164x1                     1.000000
x114x33x1                     1.000000
x88x7x1                       1.000000
x66x230x1                     2.000000
x251x282x1                    1.000000
x226x205x1                    1.000000
x73x75x1                      1.000000
x23x7x1                       1.000000
x114x129x2                    1.000000
x240x164x2                    1.000000
x16x75x2                      1.000000
x16x62x2                      1.000000
x215x186x2                    2.000000
x3x175x2                      1.000000
x20x25x2                      1.000000
x84x33x3                      1.000000
x84x62x3                      1.000000
x3x12x3                       1.000000
x251x64x3                     1.000000
x226x205x3                    1.000000
x239x162x3                    2.000000
x23x129x3                     1.000000
x20x229x3                     1.000000
x186x287x2                    2.000000
x129x133x2                    1.000000
x129x133x3                    1.000000
x164x12x1                     1.000000
x164x175x2                    1.000000
x230x229x1                    1.000000
x230x64x1                     1.000000
x12x1x1                       1.000000
x12x1x3                       1.000000
x33x282x1                     1.000000
x33x19x3                      1.000000
x75x141x1                     1.000000
x75x141x2                     1.000000
x7x269x1                      2.000000
x162x0x3                      2.000000
x141x0x1                      1.000000
x141x0x2                      1.000000
x175x0x2                      2.000000
x62x25x2                      1.000000
x62x19x3                      1.000000
x282x0x1                      2.000000
x19x0x3                       2.000000
x25x0x2                       2.000000
x205x209x1                    1.000000
x205x209x3                    1.000000
x229x0x1                      1.000000
x229x0x3                      1.000000
x64x0x1                       1.000000
x64x0x3                       1.000000
x133x0x2                      1.000000
x133x0x3                      1.000000
x269x0x1                      2.000000
x209x0x1                      1.000000
x209x0x3                      1.000000
x287x0x2                      2.000000
x1x0x1                        1.000000
x1x0x3                        1.000000
s84                           5.996451
s70                           6.560000
s94                           6.680000
s306                          7.787003
s129                          7.600627
s145                          6.970000
s128                          7.819659
s294                          7.010000
s185                          7.100000
s15                           7.220000
s12                           8.191858
s33                           7.546006
z84z33z3                      1.000000
s150                          7.949190
z84z150z3                     1.000000
s162                          8.317075
s68                           8.430000
s62                           7.525610
z84z62z3                      1.000000
s232                          7.500000
s266                          8.337548
z84z266z3                     1.000000
s19                           8.590000
z84z19z3                      1.000000
s205                          8.319593
s2                            7.900000
z84z2z3                       1.000000
s229                          8.930000
s64                           8.874187
s250                          9.030000
s133                          9.070000
s209                          9.470000
s1                            9.490000
s87                           5.110000
s164                          7.070000
z87z164z1                     1.000000
s45                           7.130000
s230                          7.493662
z87z230z1                     1.000000
s295                          7.180000
s75                           7.330000
s7                            7.823714
z87z7z1                       1.000000
s141                          8.380000
s293                          8.400000
s111                          8.510000
z87z111z1                     1.000000
s282                          8.580000
z87z282z1                     1.000000
s233                          7.700000
z87z233z1                     1.000000
s149                          8.760000
z87z149z1                     1.000000
s55                           7.860000
z87z55z1                      1.000000
s177                          8.860000
z87z177z1                     1.000000
s80                           7.870000
s269                          9.280000
z87z269z1                     1.000000
s114                          5.931919
s186                          7.810231
z114z129z2                    1.000000
z114z33z1                     1.000000
s175                          8.470000
z114z282z1                    1.000000
s25                           8.620000
z114z25z2                     1.000000
z114z233z1                    1.000000
z114z149z1                    1.000000
s30                           7.951127
z114z30z2                     1.000000
z114z55z1                     1.000000
z114z177z1                    1.000000
s48                           8.990000
z114z48z2                     1.000000
z114z269z1                    1.000000
s287                          9.470000
z114z287z2                    1.000000
s240                          5.110000
z240z186z2                    1.000000
z240z164z2                    1.000000
z240z175z2                    1.000000
z240z25z2                     1.000000
z240z30z2                     1.000000
z240z48z2                     1.000000
z240z287z2                    1.000000
s16                           5.620000
z16z186z2                     1.000000
z16z75z2                      1.000000
z16z175z2                     1.000000
z16z62z2                      1.000000
z16z25z2                      1.000000
z16z30z2                      1.000000
z16z48z2                      1.000000
z16z287z2                     1.000000
s88                           6.217573
z88z7z1                       1.000000
z88z233z1                     1.000000
z88z149z1                     1.000000
z88z30z2                      1.000000
z88z55z1                      1.000000
z88z177z1                     1.000000
z88z48z2                      1.000000
z88z269z1                     1.000000
z88z287z2                     1.000000
s215                          6.302412
z215z186z2                    1.000000
z215z175z2                    1.000000
z215z25z2                     1.000000
z215z30z2                     1.000000
z215z48z2                     1.000000
z215z287z2                    1.000000
s3                            6.366186
z3z12z3                       1.000000
z3z175z2                      1.000000
z3z2z3                        1.000000
z3z48z2                       1.000000
z3z287z2                      1.000000
s66                           5.970000
z66z230z1                     1.000000
z66z7z1                       1.000000
z66z282z1                     1.000000
z66z233z1                     1.000000
z66z149z1                     1.000000
z66z55z1                      1.000000
z66z177z1                     1.000000
z66z269z1                     1.000000
s251                          6.930000
z251z282z1                    1.000000
z251z64z3                     1.000000
s226                          6.852687
z226z205z1                    1.000000
z226z205z3                    1.000000
z226z269z1                    1.000000
s73                           6.150000
z73z75z1                      1.000000
z73z282z1                     1.000000
z73z233z1                     1.000000
z73z149z1                     1.000000
z73z55z1                      1.000000
z73z177z1                     1.000000
z73z269z1                     1.000000
s239                          7.163334
z239z162z3                    1.000000
z239z266z3                    1.000000
s23                           6.425353
z23z129z3                     1.000000
z23z7z1                       1.000000
z23z19z3                      1.000000
z23z269z1                     1.000000
s20                           7.291946
z20z25z2                      1.000000
z20z229z3                     1.000000
z20z287z2                     1.000000
z186z287z2                    1.000000
z129z133z2                    1.000000
z129z133z3                    1.000000
z164z12z1                     1.000000
z164z175z2                    1.000000
z230z229z1                    1.000000
z230z64z1                     1.000000
z230z269z1                    1.000000
z12z1z1                       1.000000
z12z1z3                       1.000000
z33z282z1                     1.000000
z33z19z3                      1.000000
z75z141z1                     1.000000
z75z141z2                     1.000000
z7z269z1                      1.000000
z62z19z3                      1.000000
z62z25z2                      1.000000
z205z209z1                    1.000000
z205z209z3                    1.000000
z30z48z2                      1.000000
All other variables in the range 1-2386 are 0.
